(set-info :source |printed by MathSAT|)
(declare-fun call__main_.call_controleur.flby.next () Bool)
(declare-fun call__main_.flby.next () Int)
(declare-fun call__main_.nB0 () Int)
(declare-fun retard0 () Bool)
(declare-fun call__main_.call_controleur.flby2 () Bool)
(declare-fun diff1 () Int)
(declare-fun call__main_.call_hypothese.ok () Bool)
(declare-fun param__B1_.next () Bool)
(declare-fun call__main_.retard0.next () Bool)
(declare-fun call__main_.call_controleur2.flby2 () Bool)
(declare-fun call__main_.call_controleur.ite.next () Bool)
(declare-fun call__main_._H1_ () Bool)
(declare-fun call__main_.call_controleur.avance.next () Bool)
(declare-fun call__main_.call_hypothese2.c () Int)
(declare-fun call__main_.avance1.next () Bool)
(declare-fun call__main_.ast () Bool)
(declare-fun call__main_.call_hypothese2.flby.next () Bool)
(declare-fun call__main_.flby2.next () Int)
(declare-fun call__main_.diff1.next () Int)
(declare-fun avance1.next () Bool)
(declare-fun call__main_.ite.next () Int)
(declare-fun call_Sofar.Sofar.next () Bool)
(declare-fun call__main_.call_hypothese.ite4.next () Int)
(declare-fun call__main_.retard0 () Bool)
(declare-fun call__main_.call_hypothese.flby2 () Int)
(declare-fun ast.next () Bool)
(declare-fun call__main_.call_hypothese.c.next () Int)
(declare-fun call__main_.call_controleur2.flby.next () Bool)
(declare-fun call__main_.call_controleur2.diff.next () Int)
(declare-fun call__main_.call_controleur.retard.next () Bool)
(declare-fun nB0 () Int)
(declare-fun _OK_.next () Bool)
(declare-fun call__main_.call_controleur2.flby () Bool)
(declare-fun diff0 () Int)
(declare-fun nB0.next () Int)
(declare-fun call__main_.call_controleur.flby () Bool)
(declare-fun call__main_.avance1 () Bool)
(declare-fun call__main_.flby3 () Int)
(declare-fun call__main_._H0_.next () Bool)
(declare-fun call__main_.call_hypothese2.ite4.next () Int)
(declare-fun call__main_.call_hypothese.ok.next () Bool)
(declare-fun call_Sofar.flby () Bool)
(declare-fun retard1.next () Bool)
(declare-fun call__main_.call_hypothese.c () Int)
(declare-fun call__main_.call_controleur.flby2.next () Bool)
(declare-fun call__main_.call_controleur.diff () Int)
(declare-fun retard1 () Bool)
(declare-fun nS.next () Int)
(declare-fun avance1 () Bool)
(declare-fun call__main_.diff0.next () Int)
(declare-fun flby.next () Bool)
(declare-fun nB1 () Int)
(declare-fun call__main_.ite2.next () Int)
(declare-fun call__main_.call_controleur2.avance () Bool)
(declare-fun call__main_.call_controleur.diff.next () Int)
(declare-fun call__main_.call_controleur2.diff () Int)
(declare-fun call__main_.nB1 () Int)
(declare-fun call__main_.retard1.next () Bool)
(declare-fun call__main_.call_controleur2.avance.next () Bool)
(declare-fun call__main_.retard1 () Bool)
(declare-fun param__S_.next () Bool)
(declare-fun call__main_.call_hypothese.flby2.next () Int)
(declare-fun param__B0_.next () Bool)
(declare-fun call_Sofar.Sofar () Bool)
(declare-fun call__main_.avance0 () Bool)
(declare-fun diff1.next () Int)
(declare-fun call__main_.nB0.next () Int)
(declare-fun nS () Int)
(declare-fun call__main_.call_hypothese.flby.next () Bool)
(declare-fun call__main_.call_hypothese2.ite2.next () Bool)
(declare-fun call__main_.call_controleur.retard () Bool)
(declare-fun ast () Bool)
(declare-fun call__main_.call_controleur.avance () Bool)
(declare-fun call__main_.call_controleur2.flby2.next () Bool)
(declare-fun call__main_.call_hypothese.ite2.next () Bool)
(declare-fun call__main_.ast.next () Bool)
(declare-fun avance0.next () Bool)
(declare-fun call__main_.nS.next () Int)
(declare-fun call__main_.call_hypothese2.ok.next () Bool)
(declare-fun retard0.next () Bool)
(declare-fun call__main_.flby () Int)
(declare-fun call__main_.call_hypothese.ite3.next () Int)
(declare-fun call__main_.call_controleur2.retard () Bool)
(declare-fun call__main_.call_hypothese.flby () Bool)
(declare-fun call__main_.diff0 () Int)
(declare-fun call__main_.flby3.next () Int)
(declare-fun call__main_.call_controleur2.retard.next () Bool)
(declare-fun nB1.next () Int)
(declare-fun call__main_.avance0.next () Bool)
(declare-fun call__main_.call_hypothese2.ite3.next () Int)
(declare-fun call__main_._H0_ () Bool)
(declare-fun flby () Bool)
(declare-fun _OK_ () Bool)
(declare-fun call_Sofar.flby.next () Bool)
(declare-fun call__main_.call_hypothese2.ite.next () Bool)
(declare-fun call__main_.diff1 () Int)
(declare-fun diff0.next () Int)
(declare-fun call__main_._H1_.next () Bool)
(declare-fun call__main_.flby2 () Int)
(declare-fun avance0 () Bool)
(declare-fun call__main_.call_controleur.ite2.next () Bool)
(declare-fun call__main_.call_hypothese2.flby2 () Int)
(declare-fun call__main_.call_hypothese2.ok () Bool)
(declare-fun call__main_.call_controleur2.ite2.next () Bool)
(declare-fun call__main_.ite3.next () Int)
(declare-fun call__main_.call_hypothese2.c.next () Int)
(declare-fun call__main_.call_hypothese2.flby2.next () Int)
(declare-fun call__main_.call_hypothese2.flby () Bool)
(declare-fun call__main_.call_hypothese.ite.next () Bool)
(declare-fun call__main_.nS () Int)
(declare-fun call__main_.nB1.next () Int)
(declare-fun call__main_.call_controleur2.ite.next () Bool)
(define-fun .def_919 () Bool (= call_Sofar.Sofar.next call_Sofar.flby.next))
(define-fun .def_917 () Bool (= call__main_.call_controleur2.flby2.next call__main_.call_controleur2.retard.next))
(define-fun .def_915 () Bool (= call__main_.call_controleur2.flby.next call__main_.call_controleur2.avance.next))
(define-fun .def_908 () Int (* (- 1) call__main_.nB1.next))
(define-fun .def_911 () Int (+ .def_908 call__main_.nS.next))
(define-fun .def_912 () Int (+ call__main_.call_controleur2.diff.next .def_911))
(define-fun .def_913 () Bool (= .def_912 0))
(define-fun .def_906 () Bool (= call__main_.call_controleur.flby2.next call__main_.call_controleur.retard.next))
(define-fun .def_904 () Bool (= call__main_.call_controleur.flby.next call__main_.call_controleur.avance.next))
(define-fun .def_897 () Int (* (- 1) call__main_.nB0.next))
(define-fun .def_900 () Int (+ .def_897 call__main_.nS.next))
(define-fun .def_901 () Int (+ call__main_.call_controleur.diff.next .def_900))
(define-fun .def_902 () Bool (= .def_901 0))
(define-fun .def_895 () Bool (= call__main_.call_hypothese2.flby2.next call__main_.call_hypothese2.c.next))
(define-fun .def_892 () Bool (= call__main_.call_hypothese2.flby.next call__main_.call_hypothese2.ok.next))
(define-fun .def_890 () Bool (= call__main_.call_hypothese.flby2.next call__main_.call_hypothese.c.next))
(define-fun .def_887 () Bool (= call__main_.call_hypothese.flby.next call__main_.call_hypothese.ok.next))
(define-fun .def_885 () Bool (= call__main_._H1_.next call__main_.call_hypothese2.ok.next))
(define-fun .def_882 () Bool (= call__main_._H0_.next call__main_.call_hypothese.ok.next))
(define-fun .def_879 () Bool (= call__main_.retard1.next call__main_.call_controleur2.retard.next))
(define-fun .def_876 () Bool (= call__main_.retard0.next call__main_.call_controleur.retard.next))
(define-fun .def_873 () Bool (= call__main_.avance1.next call__main_.call_controleur2.avance.next))
(define-fun .def_870 () Bool (= call__main_.avance0.next call__main_.call_controleur.avance.next))
(define-fun .def_867 () Bool (= call__main_.call_controleur2.diff.next call__main_.diff1.next))
(define-fun .def_865 () Bool (= call__main_.call_controleur.diff.next call__main_.diff0.next))
(define-fun .def_863 () Bool (= call__main_.flby3.next call__main_.nS.next))
(define-fun .def_861 () Bool (= call__main_.flby2.next call__main_.nB1.next))
(define-fun .def_859 () Bool (= call__main_.flby.next call__main_.nB0.next))
(define-fun .def_856 () Bool (and call__main_._H0_.next call__main_._H1_.next))
(define-fun .def_857 () Bool (= call__main_.ast.next .def_856))
(define-fun .def_852 () Bool (= ast.next call__main_.ast.next))
(define-fun .def_849 () Bool (= retard1.next call__main_.retard1.next))
(define-fun .def_845 () Bool (= retard0.next call__main_.retard0.next))
(define-fun .def_841 () Bool (= call__main_.avance1.next avance1.next))
(define-fun .def_838 () Bool (= call__main_.avance0.next avance0.next))
(define-fun .def_835 () Bool (= diff1.next call__main_.diff1.next))
(define-fun .def_831 () Bool (= diff0.next call__main_.diff0.next))
(define-fun .def_827 () Bool (= nS.next call__main_.nS.next))
(define-fun .def_823 () Bool (= nB1.next call__main_.nB1.next))
(define-fun .def_819 () Bool (= nB0.next call__main_.nB0.next))
(define-fun .def_816 () Bool (= flby.next _OK_.next))
(define-fun .def_820 () Bool (and .def_816 .def_819))
(define-fun .def_824 () Bool (and .def_820 .def_823))
(define-fun .def_828 () Bool (and .def_824 .def_827))
(define-fun .def_832 () Bool (and .def_828 .def_831))
(define-fun .def_836 () Bool (and .def_832 .def_835))
(define-fun .def_839 () Bool (and .def_836 .def_838))
(define-fun .def_842 () Bool (and .def_839 .def_841))
(define-fun .def_846 () Bool (and .def_842 .def_845))
(define-fun .def_850 () Bool (and .def_846 .def_849))
(define-fun .def_853 () Bool (and .def_850 .def_852))
(define-fun .def_858 () Bool (and .def_853 .def_857))
(define-fun .def_860 () Bool (and .def_858 .def_859))
(define-fun .def_862 () Bool (and .def_860 .def_861))
(define-fun .def_864 () Bool (and .def_862 .def_863))
(define-fun .def_866 () Bool (and .def_864 .def_865))
(define-fun .def_868 () Bool (and .def_866 .def_867))
(define-fun .def_871 () Bool (and .def_868 .def_870))
(define-fun .def_874 () Bool (and .def_871 .def_873))
(define-fun .def_877 () Bool (and .def_874 .def_876))
(define-fun .def_880 () Bool (and .def_877 .def_879))
(define-fun .def_883 () Bool (and .def_880 .def_882))
(define-fun .def_886 () Bool (and .def_883 .def_885))
(define-fun .def_888 () Bool (and .def_886 .def_887))
(define-fun .def_891 () Bool (and .def_888 .def_890))
(define-fun .def_893 () Bool (and .def_891 .def_892))
(define-fun .def_896 () Bool (and .def_893 .def_895))
(define-fun .def_903 () Bool (and .def_896 .def_902))
(define-fun .def_905 () Bool (and .def_903 .def_904))
(define-fun .def_907 () Bool (and .def_905 .def_906))
(define-fun .def_914 () Bool (and .def_907 .def_913))
(define-fun .def_916 () Bool (and .def_914 .def_915))
(define-fun .def_918 () Bool (and .def_916 .def_917))
(define-fun .def_920 () Bool (and .def_918 .def_919))
(define-fun .def_598 () Bool (= call_Sofar.Sofar call_Sofar.flby))
(define-fun .def_594 () Bool (= call__main_.call_controleur2.retard call__main_.call_controleur2.flby2))
(define-fun .def_591 () Bool (= call__main_.call_controleur2.avance call__main_.call_controleur2.flby))
(define-fun .def_585 () Int (* (- 1) call__main_.call_controleur2.diff))
(define-fun .def_571 () Int (* (- 1) call__main_.nS))
(define-fun .def_586 () Int (+ .def_571 .def_585))
(define-fun .def_587 () Int (+ call__main_.nB1 .def_586))
(define-fun .def_588 () Bool (= .def_587 0))
(define-fun .def_580 () Bool (= call__main_.call_controleur.retard call__main_.call_controleur.flby2))
(define-fun .def_577 () Bool (= call__main_.call_controleur.avance call__main_.call_controleur.flby))
(define-fun .def_570 () Int (* (- 1) call__main_.call_controleur.diff))
(define-fun .def_572 () Int (+ .def_571 .def_570))
(define-fun .def_573 () Int (+ call__main_.nB0 .def_572))
(define-fun .def_574 () Bool (= .def_573 0))
(define-fun .def_565 () Bool (= call__main_.call_hypothese2.c call__main_.call_hypothese2.flby2))
(define-fun .def_561 () Bool (= call__main_.call_hypothese2.ok call__main_.call_hypothese2.flby))
(define-fun .def_558 () Bool (= call__main_.call_hypothese.c call__main_.call_hypothese.flby2))
(define-fun .def_554 () Bool (= call__main_.call_hypothese.ok call__main_.call_hypothese.flby))
(define-fun .def_551 () Bool (= call__main_._H1_ call__main_.call_hypothese2.ok))
(define-fun .def_548 () Bool (= call__main_._H0_ call__main_.call_hypothese.ok))
(define-fun .def_545 () Bool (= call__main_.retard1 call__main_.call_controleur2.retard))
(define-fun .def_542 () Bool (= call__main_.retard0 call__main_.call_controleur.retard))
(define-fun .def_539 () Bool (= call__main_.avance1 call__main_.call_controleur2.avance))
(define-fun .def_536 () Bool (= call__main_.avance0 call__main_.call_controleur.avance))
(define-fun .def_533 () Bool (= call__main_.diff1 call__main_.call_controleur2.diff))
(define-fun .def_530 () Bool (= call__main_.diff0 call__main_.call_controleur.diff))
(define-fun .def_527 () Bool (= call__main_.nS call__main_.flby3))
(define-fun .def_524 () Bool (= call__main_.nB1 call__main_.flby2))
(define-fun .def_521 () Bool (= call__main_.nB0 call__main_.flby))
(define-fun .def_517 () Bool (and call__main_._H0_ call__main_._H1_))
(define-fun .def_518 () Bool (= call__main_.ast .def_517))
(define-fun .def_513 () Bool (= call__main_.ast ast))
(define-fun .def_509 () Bool (= retard1 call__main_.retard1))
(define-fun .def_505 () Bool (= retard0 call__main_.retard0))
(define-fun .def_501 () Bool (= avance1 call__main_.avance1))
(define-fun .def_497 () Bool (= avance0 call__main_.avance0))
(define-fun .def_493 () Bool (= diff1 call__main_.diff1))
(define-fun .def_489 () Bool (= diff0 call__main_.diff0))
(define-fun .def_485 () Bool (= nS call__main_.nS))
(define-fun .def_481 () Bool (= nB1 call__main_.nB1))
(define-fun .def_477 () Bool (= nB0 call__main_.nB0))
(define-fun .def_474 () Bool (= _OK_ flby))
(define-fun .def_478 () Bool (and .def_474 .def_477))
(define-fun .def_482 () Bool (and .def_478 .def_481))
(define-fun .def_486 () Bool (and .def_482 .def_485))
(define-fun .def_490 () Bool (and .def_486 .def_489))
(define-fun .def_494 () Bool (and .def_490 .def_493))
(define-fun .def_498 () Bool (and .def_494 .def_497))
(define-fun .def_502 () Bool (and .def_498 .def_501))
(define-fun .def_506 () Bool (and .def_502 .def_505))
(define-fun .def_510 () Bool (and .def_506 .def_509))
(define-fun .def_514 () Bool (and .def_510 .def_513))
(define-fun .def_519 () Bool (and .def_514 .def_518))
(define-fun .def_522 () Bool (and .def_519 .def_521))
(define-fun .def_525 () Bool (and .def_522 .def_524))
(define-fun .def_528 () Bool (and .def_525 .def_527))
(define-fun .def_531 () Bool (and .def_528 .def_530))
(define-fun .def_534 () Bool (and .def_531 .def_533))
(define-fun .def_537 () Bool (and .def_534 .def_536))
(define-fun .def_540 () Bool (and .def_537 .def_539))
(define-fun .def_543 () Bool (and .def_540 .def_542))
(define-fun .def_546 () Bool (and .def_543 .def_545))
(define-fun .def_549 () Bool (and .def_546 .def_548))
(define-fun .def_552 () Bool (and .def_549 .def_551))
(define-fun .def_555 () Bool (and .def_552 .def_554))
(define-fun .def_559 () Bool (and .def_555 .def_558))
(define-fun .def_562 () Bool (and .def_559 .def_561))
(define-fun .def_566 () Bool (and .def_562 .def_565))
(define-fun .def_575 () Bool (and .def_566 .def_574))
(define-fun .def_578 () Bool (and .def_575 .def_577))
(define-fun .def_581 () Bool (and .def_578 .def_580))
(define-fun .def_589 () Bool (and .def_581 .def_588))
(define-fun .def_592 () Bool (and .def_589 .def_591))
(define-fun .def_595 () Bool (and .def_592 .def_594))
(define-fun .def_599 () Bool (and .def_595 .def_598))
(define-fun .def_921 () Bool (and .def_599 .def_920))
(define-fun .def_811 () Bool (and call_Sofar.Sofar ast.next))
(define-fun .def_813 () Bool (= .def_811 call_Sofar.flby.next))
(define-fun .def_808 () Bool (= call__main_.call_controleur2.ite2.next call__main_.call_controleur2.flby2.next))
(define-fun .def_805 () Bool (= call__main_.call_controleur2.ite.next call__main_.call_controleur2.flby.next))
(define-fun .def_798 () Bool (<= 0 call__main_.call_controleur2.diff.next))
(define-fun .def_799 () Bool (not .def_798))
(define-fun .def_800 () Bool (= call__main_.call_controleur2.ite2.next .def_799))
(define-fun .def_797 () Bool (not call__main_.call_controleur2.retard))
(define-fun .def_801 () Bool (or .def_797 .def_800))
(define-fun .def_792 () Bool (<= call__main_.call_controleur2.diff.next (- 10)))
(define-fun .def_794 () Bool (= .def_792 call__main_.call_controleur2.ite2.next))
(define-fun .def_795 () Bool (or call__main_.call_controleur2.retard .def_794))
(define-fun .def_788 () Bool (<= 10 call__main_.call_controleur2.diff.next))
(define-fun .def_789 () Bool (= call__main_.call_controleur2.ite.next .def_788))
(define-fun .def_790 () Bool (or call__main_.call_controleur2.avance .def_789))
(define-fun .def_783 () Bool (<= call__main_.call_controleur2.diff.next 0))
(define-fun .def_784 () Bool (not .def_783))
(define-fun .def_786 () Bool (= .def_784 call__main_.call_controleur2.ite.next))
(define-fun .def_781 () Bool (not call__main_.call_controleur2.avance))
(define-fun .def_787 () Bool (or .def_781 .def_786))
(define-fun .def_791 () Bool (and .def_787 .def_790))
(define-fun .def_796 () Bool (and .def_791 .def_795))
(define-fun .def_802 () Bool (and .def_796 .def_801))
(define-fun .def_779 () Bool (= call__main_.call_controleur.ite2.next call__main_.call_controleur.flby2.next))
(define-fun .def_776 () Bool (= call__main_.call_controleur.ite.next call__main_.call_controleur.flby.next))
(define-fun .def_769 () Bool (<= 0 call__main_.call_controleur.diff.next))
(define-fun .def_770 () Bool (not .def_769))
(define-fun .def_771 () Bool (= call__main_.call_controleur.ite2.next .def_770))
(define-fun .def_768 () Bool (not call__main_.call_controleur.retard))
(define-fun .def_772 () Bool (or .def_768 .def_771))
(define-fun .def_763 () Bool (<= call__main_.call_controleur.diff.next (- 10)))
(define-fun .def_765 () Bool (= .def_763 call__main_.call_controleur.ite2.next))
(define-fun .def_766 () Bool (or call__main_.call_controleur.retard .def_765))
(define-fun .def_759 () Bool (<= 10 call__main_.call_controleur.diff.next))
(define-fun .def_760 () Bool (= call__main_.call_controleur.ite.next .def_759))
(define-fun .def_761 () Bool (or call__main_.call_controleur.avance .def_760))
(define-fun .def_754 () Bool (<= call__main_.call_controleur.diff.next 0))
(define-fun .def_755 () Bool (not .def_754))
(define-fun .def_757 () Bool (= .def_755 call__main_.call_controleur.ite.next))
(define-fun .def_752 () Bool (not call__main_.call_controleur.avance))
(define-fun .def_758 () Bool (or .def_752 .def_757))
(define-fun .def_762 () Bool (and .def_758 .def_761))
(define-fun .def_767 () Bool (and .def_762 .def_766))
(define-fun .def_773 () Bool (and .def_767 .def_772))
(define-fun .def_750 () Bool (= call__main_.call_hypothese2.ite4.next call__main_.call_hypothese2.flby2.next))
(define-fun .def_745 () Bool (and call__main_.call_hypothese2.ite2.next call__main_.call_hypothese2.ite.next))
(define-fun .def_747 () Bool (= .def_745 call__main_.call_hypothese2.flby.next))
(define-fun .def_632 () Bool (<= 9 call__main_.call_hypothese2.c))
(define-fun .def_743 () Bool (or call__main_.call_hypothese2.ite2.next .def_632))
(define-fun .def_741 () Bool (= call__main_.call_hypothese.ite4.next call__main_.call_hypothese.flby2.next))
(define-fun .def_736 () Bool (and call__main_.call_hypothese.ite2.next call__main_.call_hypothese.ite.next))
(define-fun .def_738 () Bool (= .def_736 call__main_.call_hypothese.flby.next))
(define-fun .def_657 () Bool (<= 9 call__main_.call_hypothese.c))
(define-fun .def_734 () Bool (or call__main_.call_hypothese.ite2.next .def_657))
(define-fun .def_732 () Bool (= call__main_.ite3.next call__main_.flby3.next))
(define-fun .def_729 () Bool (= call__main_.ite2.next call__main_.flby2.next))
(define-fun .def_726 () Bool (= call__main_.ite.next call__main_.flby.next))
(define-fun .def_723 () Bool (or call__main_.retard1 call__main_.call_hypothese2.ite.next))
(define-fun .def_721 () Bool (or call__main_.retard0 call__main_.call_hypothese.ite.next))
(define-fun .def_714 () Bool (and call__main_.avance1 call__main_.avance1.next))
(define-fun .def_717 () Bool (not .def_714))
(define-fun .def_716 () Bool (= call__main_.call_hypothese2.ite3.next call__main_.call_hypothese2.ite4.next))
(define-fun .def_718 () Bool (or .def_716 .def_717))
(define-fun .def_712 () Bool (= call__main_.call_hypothese2.ite4.next 0))
(define-fun .def_715 () Bool (or .def_712 .def_714))
(define-fun .def_719 () Bool (and .def_715 .def_718))
(define-fun .def_704 () Bool (and call__main_.avance0 call__main_.avance0.next))
(define-fun .def_707 () Bool (not .def_704))
(define-fun .def_706 () Bool (= call__main_.call_hypothese.ite3.next call__main_.call_hypothese.ite4.next))
(define-fun .def_708 () Bool (or .def_706 .def_707))
(define-fun .def_702 () Bool (= call__main_.call_hypothese.ite4.next 0))
(define-fun .def_705 () Bool (or .def_702 .def_704))
(define-fun .def_709 () Bool (and .def_705 .def_708))
(define-fun .def_695 () Bool (<= diff0 20))
(define-fun .def_694 () Bool (<= (- 10) diff0))
(define-fun .def_696 () Bool (and .def_694 .def_695))
(define-fun .def_693 () Bool (not call_Sofar.Sofar.next))
(define-fun .def_697 () Bool (or .def_693 .def_696))
(define-fun .def_699 () Bool (= .def_697 flby.next))
(define-fun .def_688 () Bool (= call__main_.nS call__main_.ite3.next))
(define-fun .def_689 () Bool (or param__S_.next .def_688))
(define-fun .def_683 () Int (* (- 1) call__main_.ite3.next))
(define-fun .def_684 () Int (+ call__main_.nS .def_683))
(define-fun .def_685 () Bool (= .def_684 (- 1)))
(define-fun .def_672 () Bool (not param__S_.next))
(define-fun .def_686 () Bool (or .def_672 .def_685))
(define-fun .def_679 () Bool (not call__main_.retard0))
(define-fun .def_678 () Bool (= .def_672 call__main_.call_hypothese.ite.next))
(define-fun .def_680 () Bool (or .def_678 .def_679))
(define-fun .def_675 () Bool (not call__main_.retard1))
(define-fun .def_674 () Bool (= .def_672 call__main_.call_hypothese2.ite.next))
(define-fun .def_676 () Bool (or .def_674 .def_675))
(define-fun .def_681 () Bool (and .def_676 .def_680))
(define-fun .def_687 () Bool (and .def_681 .def_686))
(define-fun .def_690 () Bool (and .def_687 .def_689))
(define-fun .def_665 () Bool (= call__main_.nB0 call__main_.ite.next))
(define-fun .def_668 () Bool (or param__B0_.next .def_665))
(define-fun .def_653 () Bool (not param__B0_.next))
(define-fun .def_666 () Bool (or .def_653 .def_665))
(define-fun .def_661 () Bool (= call__main_.call_hypothese.c call__main_.call_hypothese.ite3.next))
(define-fun .def_662 () Bool (or param__B0_.next .def_661))
(define-fun .def_658 () Bool (not .def_657))
(define-fun .def_656 () Bool (= .def_653 call__main_.call_hypothese.ite2.next))
(define-fun .def_659 () Bool (or .def_656 .def_658))
(define-fun .def_649 () Int (* (- 1) call__main_.call_hypothese.ite3.next))
(define-fun .def_650 () Int (+ call__main_.call_hypothese.c .def_649))
(define-fun .def_651 () Bool (= .def_650 (- 2)))
(define-fun .def_654 () Bool (or .def_651 .def_653))
(define-fun .def_660 () Bool (and .def_654 .def_659))
(define-fun .def_663 () Bool (and .def_660 .def_662))
(define-fun .def_667 () Bool (and .def_663 .def_666))
(define-fun .def_669 () Bool (and .def_667 .def_668))
(define-fun .def_645 () Bool (= call__main_.nB1 call__main_.ite2.next))
(define-fun .def_646 () Bool (or param__B1_.next .def_645))
(define-fun .def_640 () Int (* (- 1) call__main_.ite2.next))
(define-fun .def_641 () Int (+ call__main_.nB1 .def_640))
(define-fun .def_642 () Bool (= .def_641 (- 1)))
(define-fun .def_628 () Bool (not param__B1_.next))
(define-fun .def_643 () Bool (or .def_628 .def_642))
(define-fun .def_636 () Bool (= call__main_.call_hypothese2.c call__main_.call_hypothese2.ite3.next))
(define-fun .def_637 () Bool (or param__B1_.next .def_636))
(define-fun .def_633 () Bool (not .def_632))
(define-fun .def_631 () Bool (= .def_628 call__main_.call_hypothese2.ite2.next))
(define-fun .def_634 () Bool (or .def_631 .def_633))
(define-fun .def_624 () Int (* (- 1) call__main_.call_hypothese2.ite3.next))
(define-fun .def_625 () Int (+ call__main_.call_hypothese2.c .def_624))
(define-fun .def_626 () Bool (= .def_625 (- 2)))
(define-fun .def_629 () Bool (or .def_626 .def_628))
(define-fun .def_635 () Bool (and .def_629 .def_634))
(define-fun .def_638 () Bool (and .def_635 .def_637))
(define-fun .def_644 () Bool (and .def_638 .def_643))
(define-fun .def_647 () Bool (and .def_644 .def_646))
(define-fun .def_670 () Bool (and .def_647 .def_669))
(define-fun .def_691 () Bool (and .def_670 .def_690))
(define-fun .def_700 () Bool (and .def_691 .def_699))
(define-fun .def_710 () Bool (and .def_700 .def_709))
(define-fun .def_720 () Bool (and .def_710 .def_719))
(define-fun .def_722 () Bool (and .def_720 .def_721))
(define-fun .def_724 () Bool (and .def_722 .def_723))
(define-fun .def_727 () Bool (and .def_724 .def_726))
(define-fun .def_730 () Bool (and .def_727 .def_729))
(define-fun .def_733 () Bool (and .def_730 .def_732))
(define-fun .def_735 () Bool (and .def_733 .def_734))
(define-fun .def_739 () Bool (and .def_735 .def_738))
(define-fun .def_742 () Bool (and .def_739 .def_741))
(define-fun .def_744 () Bool (and .def_742 .def_743))
(define-fun .def_748 () Bool (and .def_744 .def_747))
(define-fun .def_751 () Bool (and .def_748 .def_750))
(define-fun .def_774 () Bool (and .def_751 .def_773))
(define-fun .def_777 () Bool (and .def_774 .def_776))
(define-fun .def_780 () Bool (and .def_777 .def_779))
(define-fun .def_803 () Bool (and .def_780 .def_802))
(define-fun .def_806 () Bool (and .def_803 .def_805))
(define-fun .def_809 () Bool (and .def_806 .def_808))
(define-fun .def_814 () Bool (and .def_809 .def_813))
(define-fun .def_922 () Bool (and .def_814 .def_921))
(assert .def_922)
